p edge 116 900
v 1 43
v 2 421
v 3 23
v 4 214
v 5 120
v 6 125
v 7 128
v 8 461
v 9 127
v 10 506
v 11 80
v 12 335
v 13 20
v 14 130
v 15 116
v 16 328
v 17 71
v 18 66
v 19 14
v 20 220
v 21 314
v 22 132
v 23 170
v 24 43
v 25 127
v 26 71
v 27 66
v 28 26
v 29 9
v 30 26
v 31 6
v 32 38
v 33 421
v 34 506
v 35 66
v 36 66
v 37 215
v 38 99
v 39 111
v 40 201
v 41 10
v 42 171
v 43 35
v 44 128
v 45 178
v 46 26
v 47 215
v 48 244
v 49 12
v 50 40
v 51 51
v 52 40
v 53 32
v 54 44
v 55 99
v 56 244
v 57 108
v 58 568
v 59 248
v 60 105
v 61 95
v 62 157
v 63 155
v 64 23
v 65 80
v 66 111
v 67 108
v 68 8
v 69 38
v 70 18
v 71 30
v 72 214
v 73 335
v 74 26
v 75 201
v 76 568
v 77 17
v 78 41
v 79 25
v 80 25
v 81 34
v 82 158
v 83 24
v 84 20
v 85 14
v 86 10
v 87 12
v 88 86
v 89 17
v 90 12
v 91 120
v 92 130
v 93 220
v 94 171
v 95 40
v 96 38
v 97 41
v 98 20
v 99 28
v 100 125
v 101 74
v 102 314
v 103 35
v 104 51
v 105 105
v 106 25
v 107 122
v 108 116
v 109 132
v 110 128
v 111 40
v 112 95
v 113 25
v 114 13
v 115 24
v 116 128
e 1 2
e 1 3
e 1 4
e 1 5
e 1 6
e 1 7
e 1 24
e 1 32
e 1 52
e 1 60
e 1 69
e 1 77
e 1 89
e 1 96
e 1 105
e 1 111
e 2 3
e 2 4
e 2 5
e 2 6
e 2 7
e 2 9
e 2 25
e 2 33
e 2 45
e 2 53
e 2 61
e 2 70
e 2 78
e 2 97
e 2 112
e 3 4
e 3 5
e 3 6
e 3 7
e 3 27
e 3 36
e 3 64
e 3 71
e 3 81
e 4 5
e 4 6
e 4 7
e 4 11
e 4 28
e 4 46
e 4 65
e 4 72
e 4 82
e 5 6
e 5 7
e 5 13
e 5 29
e 5 38
e 5 55
e 5 84
e 5 91
e 5 99
e 6 7
e 6 14
e 6 19
e 6 30
e 6 39
e 6 48
e 6 56
e 6 66
e 6 74
e 6 85
e 6 92
e 6 100
e 6 114
e 7 15
e 7 21
e 7 41
e 7 57
e 7 67
e 7 86
e 7 102
e 7 108
e 7 116
e 8 9
e 8 10
e 8 11
e 8 12
e 8 13
e 8 14
e 8 15
e 8 16
e 8 22
e 8 42
e 8 49
e 8 58
e 8 76
e 8 87
e 8 94
e 8 109
e 9 10
e 9 11
e 9 12
e 9 13
e 9 14
e 9 15
e 9 25
e 9 33
e 9 45
e 9 53
e 9 61
e 9 70
e 9 78
e 9 97
e 9 112
e 10 11
e 10 12
e 10 13
e 10 14
e 10 15
e 10 17
e 10 26
e 10 34
e 10 54
e 10 62
e 10 79
e 10 106
e 11 12
e 11 13
e 11 14
e 11 15
e 11 28
e 11 46
e 11 65
e 11 72
e 11 82
e 12 13
e 12 14
e 12 15
e 12 37
e 12 47
e 12 73
e 12 83
e 12 90
e 12 98
e 13 14
e 13 15
e 13 29
e 13 38
e 13 55
e 13 84
e 13 91
e 13 99
e 14 15
e 14 19
e 14 30
e 14 39
e 14 48
e 14 56
e 14 66
e 14 74
e 14 85
e 14 92
e 14 100
e 14 114
e 15 21
e 15 41
e 15 57
e 15 67
e 15 86
e 15 102
e 15 108
e 15 116
e 16 17
e 16 18
e 16 19
e 16 20
e 16 21
e 16 22
e 16 42
e 16 49
e 16 58
e 16 76
e 16 87
e 16 94
e 16 109
e 17 18
e 17 19
e 17 20
e 17 21
e 17 26
e 17 34
e 17 54
e 17 62
e 17 79
e 17 106
e 18 19
e 18 20
e 18 21
e 18 35
e 18 63
e 18 80
e 18 113
e 19 20
e 19 21
e 19 30
e 19 39
e 19 48
e 19 56
e 19 66
e 19 74
e 19 85
e 19 92
e 19 100
e 19 114
e 20 21
e 20 40
e 20 75
e 20 93
e 20 101
e 20 107
e 20 115
e 21 41
e 21 57
e 21 67
e 21 86
e 21 102
e 21 108
e 21 116
e 22 23
e 22 24
e 22 25
e 22 26
e 22 27
e 22 28
e 22 29
e 22 30
e 22 42
e 22 49
e 22 58
e 22 76
e 22 87
e 22 94
e 22 109
e 23 24
e 23 25
e 23 26
e 23 27
e 23 28
e 23 29
e 23 30
e 23 31
e 23 44
e 23 51
e 23 59
e 23 68
e 23 104
e 23 110
e 24 25
e 24 26
e 24 27
e 24 28
e 24 29
e 24 30
e 24 32
e 24 52
e 24 60
e 24 69
e 24 77
e 24 89
e 24 96
e 24 105
e 24 111
e 25 26
e 25 27
e 25 28
e 25 29
e 25 30
e 25 33
e 25 45
e 25 53
e 25 61
e 25 70
e 25 78
e 25 97
e 25 112
e 26 27
e 26 28
e 26 29
e 26 30
e 26 34
e 26 54
e 26 62
e 26 79
e 26 106
e 27 28
e 27 29
e 27 30
e 27 36
e 27 64
e 27 71
e 27 81
e 28 29
e 28 30
e 28 46
e 28 65
e 28 72
e 28 82
e 29 30
e 29 38
e 29 55
e 29 84
e 29 91
e 29 99
e 30 39
e 30 48
e 30 56
e 30 66
e 30 74
e 30 85
e 30 92
e 30 100
e 30 114
e 31 32
e 31 33
e 31 34
e 31 35
e 31 36
e 31 37
e 31 38
e 31 39
e 31 40
e 31 41
e 31 44
e 31 51
e 31 59
e 31 68
e 31 104
e 31 110
e 32 33
e 32 34
e 32 35
e 32 36
e 32 37
e 32 38
e 32 39
e 32 40
e 32 41
e 32 52
e 32 60
e 32 69
e 32 77
e 32 89
e 32 96
e 32 105
e 32 111
e 33 34
e 33 35
e 33 36
e 33 37
e 33 38
e 33 39
e 33 40
e 33 41
e 33 45
e 33 53
e 33 61
e 33 70
e 33 78
e 33 97
e 33 112
e 34 35
e 34 36
e 34 37
e 34 38
e 34 39
e 34 40
e 34 41
e 34 54
e 34 62
e 34 79
e 34 106
e 35 36
e 35 37
e 35 38
e 35 39
e 35 40
e 35 41
e 35 63
e 35 80
e 35 113
e 36 37
e 36 38
e 36 39
e 36 40
e 36 41
e 36 64
e 36 71
e 36 81
e 37 38
e 37 39
e 37 40
e 37 41
e 37 47
e 37 73
e 37 83
e 37 90
e 37 98
e 38 39
e 38 40
e 38 41
e 38 55
e 38 84
e 38 91
e 38 99
e 39 40
e 39 41
e 39 48
e 39 56
e 39 66
e 39 74
e 39 85
e 39 92
e 39 100
e 39 114
e 40 41
e 40 75
e 40 93
e 40 101
e 40 107
e 40 115
e 41 57
e 41 67
e 41 86
e 41 102
e 41 108
e 41 116
e 42 43
e 42 44
e 42 45
e 42 46
e 42 47
e 42 48
e 42 49
e 42 58
e 42 76
e 42 87
e 42 94
e 42 109
e 43 44
e 43 45
e 43 46
e 43 47
e 43 48
e 43 50
e 43 88
e 43 95
e 43 103
e 44 45
e 44 46
e 44 47
e 44 48
e 44 51
e 44 59
e 44 68
e 44 104
e 44 110
e 45 46
e 45 47
e 45 48
e 45 53
e 45 61
e 45 70
e 45 78
e 45 97
e 45 112
e 46 47
e 46 48
e 46 65
e 46 72
e 46 82
e 47 48
e 47 73
e 47 83
e 47 90
e 47 98
e 48 56
e 48 66
e 48 74
e 48 85
e 48 92
e 48 100
e 48 114
e 49 50
e 49 51
e 49 52
e 49 53
e 49 54
e 49 55
e 49 56
e 49 57
e 49 58
e 49 76
e 49 87
e 49 94
e 49 109
e 50 51
e 50 52
e 50 53
e 50 54
e 50 55
e 50 56
e 50 57
e 50 88
e 50 95
e 50 103
e 51 52
e 51 53
e 51 54
e 51 55
e 51 56
e 51 57
e 51 59
e 51 68
e 51 104
e 51 110
e 52 53
e 52 54
e 52 55
e 52 56
e 52 57
e 52 60
e 52 69
e 52 77
e 52 89
e 52 96
e 52 105
e 52 111
e 53 54
e 53 55
e 53 56
e 53 57
e 53 61
e 53 70
e 53 78
e 53 97
e 53 112
e 54 55
e 54 56
e 54 57
e 54 62
e 54 79
e 54 106
e 55 56
e 55 57
e 55 84
e 55 91
e 55 99
e 56 57
e 56 66
e 56 74
e 56 85
e 56 92
e 56 100
e 56 114
e 57 67
e 57 86
e 57 102
e 57 108
e 57 116
e 58 59
e 58 60
e 58 61
e 58 62
e 58 63
e 58 64
e 58 65
e 58 66
e 58 67
e 58 76
e 58 87
e 58 94
e 58 109
e 59 60
e 59 61
e 59 62
e 59 63
e 59 64
e 59 65
e 59 66
e 59 67
e 59 68
e 59 104
e 59 110
e 60 61
e 60 62
e 60 63
e 60 64
e 60 65
e 60 66
e 60 67
e 60 69
e 60 77
e 60 89
e 60 96
e 60 105
e 60 111
e 61 62
e 61 63
e 61 64
e 61 65
e 61 66
e 61 67
e 61 70
e 61 78
e 61 97
e 61 112
e 62 63
e 62 64
e 62 65
e 62 66
e 62 67
e 62 79
e 62 106
e 63 64
e 63 65
e 63 66
e 63 67
e 63 80
e 63 113
e 64 65
e 64 66
e 64 67
e 64 71
e 64 81
e 65 66
e 65 67
e 65 72
e 65 82
e 66 67
e 66 74
e 66 85
e 66 92
e 66 100
e 66 114
e 67 86
e 67 102
e 67 108
e 67 116
e 68 69
e 68 70
e 68 71
e 68 72
e 68 73
e 68 74
e 68 75
e 68 104
e 68 110
e 69 70
e 69 71
e 69 72
e 69 73
e 69 74
e 69 75
e 69 77
e 69 89
e 69 96
e 69 105
e 69 111
e 70 71
e 70 72
e 70 73
e 70 74
e 70 75
e 70 78
e 70 97
e 70 112
e 71 72
e 71 73
e 71 74
e 71 75
e 71 81
e 72 73
e 72 74
e 72 75
e 72 82
e 73 74
e 73 75
e 73 83
e 73 90
e 73 98
e 74 75
e 74 85
e 74 92
e 74 100
e 74 114
e 75 93
e 75 101
e 75 107
e 75 115
e 76 77
e 76 78
e 76 79
e 76 80
e 76 81
e 76 82
e 76 83
e 76 84
e 76 85
e 76 86
e 76 87
e 76 94
e 76 109
e 77 78
e 77 79
e 77 80
e 77 81
e 77 82
e 77 83
e 77 84
e 77 85
e 77 86
e 77 89
e 77 96
e 77 105
e 77 111
e 78 79
e 78 80
e 78 81
e 78 82
e 78 83
e 78 84
e 78 85
e 78 86
e 78 97
e 78 112
e 79 80
e 79 81
e 79 82
e 79 83
e 79 84
e 79 85
e 79 86
e 79 106
e 80 81
e 80 82
e 80 83
e 80 84
e 80 85
e 80 86
e 80 113
e 81 82
e 81 83
e 81 84
e 81 85
e 81 86
e 82 83
e 82 84
e 82 85
e 82 86
e 83 84
e 83 85
e 83 86
e 83 90
e 83 98
e 84 85
e 84 86
e 84 91
e 84 99
e 85 86
e 85 92
e 85 100
e 85 114
e 86 102
e 86 108
e 86 116
e 87 88
e 87 89
e 87 90
e 87 91
e 87 92
e 87 93
e 87 94
e 87 109
e 88 89
e 88 90
e 88 91
e 88 92
e 88 93
e 88 95
e 88 103
e 89 90
e 89 91
e 89 92
e 89 93
e 89 96
e 89 105
e 89 111
e 90 91
e 90 92
e 90 93
e 90 98
e 91 92
e 91 93
e 91 99
e 92 93
e 92 100
e 92 114
e 93 101
e 93 107
e 93 115
e 94 95
e 94 96
e 94 97
e 94 98
e 94 99
e 94 100
e 94 101
e 94 102
e 94 109
e 95 96
e 95 97
e 95 98
e 95 99
e 95 100
e 95 101
e 95 102
e 95 103
e 96 97
e 96 98
e 96 99
e 96 100
e 96 101
e 96 102
e 96 105
e 96 111
e 97 98
e 97 99
e 97 100
e 97 101
e 97 102
e 97 112
e 98 99
e 98 100
e 98 101
e 98 102
e 99 100
e 99 101
e 99 102
e 100 101
e 100 102
e 100 114
e 101 102
e 101 107
e 101 115
e 102 108
e 102 116
e 103 104
e 103 105
e 103 106
e 103 107
e 103 108
e 104 105
e 104 106
e 104 107
e 104 108
e 104 110
e 105 106
e 105 107
e 105 108
e 105 111
e 106 107
e 106 108
e 107 108
e 107 115
e 108 116
e 109 110
e 109 111
e 109 112
e 109 113
e 109 114
e 109 115
e 109 116
e 110 111
e 110 112
e 110 113
e 110 114
e 110 115
e 110 116
e 111 112
e 111 113
e 111 114
e 111 115
e 111 116
e 112 113
e 112 114
e 112 115
e 112 116
e 113 114
e 113 115
e 113 116
e 114 115
e 114 116
e 115 116
